c Generated map
c Size: 8 * 8, weights in range: 1 to 10, walls: True, with ratio 0.1
c dim 7 of 10
c
p sp 64 95
c graph contains 64 nodes and 95 arcs
c
a 1 2 10
a 2 1 10
a 2 10 2
a 10 2 2
a 2 3 1
a 3 2 1
a 3 11 10
a 11 3 10
a 3 4 9
a 4 3 9
a 4 12 5
a 12 4 5
a 4 5 9
a 5 4 9
a 5 13 6
a 13 5 6
a 5 6 10
a 6 5 10
a 6 14 8
a 14 6 8
a 6 7 10
a 7 6 10
a 7 15 10
a 15 7 10
a 7 8 10
a 8 7 10
a 10 18 10
a 18 10 10
a 10 11 8
a 11 10 8
a 11 19 10
a 19 11 10
a 11 12 9
a 12 11 9
a 12 20 10
a 20 12 10
a 12 13 2
a 13 12 2
a 13 21 4
a 21 13 4
a 13 14 9
a 14 13 9
a 14 15 5
a 15 14 5
a 15 23 5
a 23 15 5
a 17 25 2
a 25 17 2
a 17 18 1
a 18 17 1
a 18 26 5
a 26 18 5
a 18 19 4
a 19 18 4
a 19 27 6
a 27 19 6
a 19 20 8
a 20 19 8
a 20 28 7
a 28 20 7
a 20 21 9
a 21 20 9
a 21 29 7
a 29 21 7
a 23 31 7
a 31 23 7
a 25 33 6
a 33 25 6
a 25 26 6
a 26 25 6
a 26 34 4
a 34 26 4
a 26 27 4
a 27 26 4
a 27 35 7
a 35 27 7
a 27 28 10
a 28 27 10
a 28 36 6
a 36 28 6
a 28 29 1
a 29 28 1
a 29 37 1
a 37 29 1
a 31 39 6
a 39 31 6
a 31 32 2
a 32 31 2
a 32 40 7
a 40 32 7
a 33 41 1
a 41 33 1
a 33 34 9
a 34 33 9
a 34 42 5
a 42 34 5
a 34 35 10
a 35 34 10
a 35 43 8
a 43 35 8
a 35 36 1
a 36 35 1
a 36 44 9
a 44 36 9
a 36 37 9
a 37 36 9
a 37 45 6
a 45 37 6
a 37 38 7
a 38 37 7
a 38 46 5
a 46 38 5
a 38 39 2
a 39 38 2
a 39 47 3
a 47 39 3
a 39 40 9
a 40 39 9
a 40 48 1
a 48 40 1
a 41 49 5
a 49 41 5
a 41 42 6
a 42 41 6
a 42 50 7
a 50 42 7
a 42 43 5
a 43 42 5
a 43 51 5
a 51 43 5
a 43 44 5
a 44 43 5
a 44 52 5
a 52 44 5
a 44 45 10
a 45 44 10
a 45 53 8
a 53 45 8
a 45 46 9
a 46 45 9
a 46 54 6
a 54 46 6
a 46 47 7
a 47 46 7
a 47 55 9
a 55 47 9
a 47 48 2
a 48 47 2
a 48 56 4
a 56 48 4
a 49 50 9
a 50 49 9
a 50 58 4
a 58 50 4
a 50 51 8
a 51 50 8
a 51 59 7
a 59 51 7
a 51 52 8
a 52 51 8
a 52 60 8
a 60 52 8
a 52 53 3
a 53 52 3
a 53 61 10
a 61 53 10
a 53 54 3
a 54 53 3
a 54 62 5
a 62 54 5
a 54 55 8
a 55 54 8
a 55 63 10
a 63 55 10
a 55 56 10
a 56 55 10
a 56 64 8
a 64 56 8
a 58 59 1
a 59 58 1
a 59 60 6
a 60 59 6
a 60 61 1
a 61 60 1
a 61 62 8
a 62 61 8
a 62 63 10
a 63 62 10
a 63 64 7
a 64 63 7
